BAYES
144
2 2 2 2 2 2 2 2 2 2 2 2 2 2 2 2 2 2 2 2 2 2 2 2 2 2 2 2 2 2 2 2 2 2 2 2 2 2 2 2 2 2 2 2 2 2 2 2 2 2 2 2 2 2 2 2 2 2 2 2 2 2 2 2 2 2 2 2 2 2 2 2 2 2 2 2 2 2 2 2 2 2 2 2 2 2 2 2 2 2 2 2 2 2 2 2 2 2 2 2 2 2 2 2 2 2 2 2 2 2 2 2 2 2 2 2 2 2 2 2 2 2 2 2 2 2 2 2 2 2 2 2 2 2 2 2 2 2 2 2 2 2 2 2
144
1 0
2 0 1
2 1 2
2 2 3
2 3 4
2 4 5
2 5 6
2 6 7
2 7 8
2 8 9
2 9 10
2 10 11
2 0 12
3 1 12 13
3 2 13 14
3 3 14 15
3 4 15 16
3 5 16 17
3 6 17 18
3 7 18 19
3 8 19 20
3 9 20 21
3 10 21 22
3 11 22 23
2 12 24
3 13 24 25
3 14 25 26
3 15 26 27
3 16 27 28
3 17 28 29
3 18 29 30
3 19 30 31
3 20 31 32
3 21 32 33
3 22 33 34
3 23 34 35
2 24 36
3 25 36 37
3 26 37 38
3 27 38 39
3 28 39 40
3 29 40 41
3 30 41 42
3 31 42 43
3 32 43 44
3 33 44 45
3 34 45 46
3 35 46 47
2 36 48
3 37 48 49
3 38 49 50
3 39 50 51
3 40 51 52
3 41 52 53
3 42 53 54
3 43 54 55
3 44 55 56
3 45 56 57
3 46 57 58
3 47 58 59
2 48 60
3 49 60 61
3 50 61 62
3 51 62 63
3 52 63 64
3 53 64 65
3 54 65 66
3 55 66 67
3 56 67 68
3 57 68 69
3 58 69 70
3 59 70 71
2 60 72
3 61 72 73
3 62 73 74
3 63 74 75
3 64 75 76
3 65 76 77
3 66 77 78
3 67 78 79
3 68 79 80
3 69 80 81
3 70 81 82
3 71 82 83
2 72 84
3 73 84 85
3 74 85 86
3 75 86 87
3 76 87 88
3 77 88 89
3 78 89 90
3 79 90 91
3 80 91 92
3 81 92 93
3 82 93 94
3 83 94 95
2 84 96
3 85 96 97
3 86 97 98
3 87 98 99
3 88 99 100
3 89 100 101
3 90 101 102
3 91 102 103
3 92 103 104
3 93 104 105
3 94 105 106
3 95 106 107
2 96 108
3 97 108 109
3 98 109 110
3 99 110 111
3 100 111 112
3 101 112 113
3 102 113 114
3 103 114 115
3 104 115 116
3 105 116 117
3 106 117 118
3 107 118 119
2 108 120
3 109 120 121
3 110 121 122
3 111 122 123
3 112 123 124
3 113 124 125
3 114 125 126
3 115 126 127
3 116 127 128
3 117 128 129
3 118 129 130
3 119 130 131
2 120 132
3 121 132 133
3 122 133 134
3 123 134 135
3 124 135 136
3 125 136 137
3 126 137 138
3 127 138 139
3 128 139 140
3 129 140 141
3 130 141 142
3 131 142 143

2
0.494358 0.505642
4
0.0 1.0 1.0 0.0
4
0.0 1.0 1.0 0.0
4
0.0 1.0 1.0 0.0
4
1.0 0.0 0.0 1.0
4
1.0 0.0 0.0 1.0
4
1.0 0.0 0.0 1.0
4
1.0 0.0 0.0 1.0
4
1.0 0.0 0.0 1.0
4
1.0 0.0 0.0 1.0
4
1.0 0.0 0.0 1.0
4
0.48823 0.51177 0.602302 0.397698
4
1.0 0.0 0.0 1.0
8
0.0 1.0 0.0 1.0 0.0 1.0 1.0 0.0
8
1.0 0.0 1.0 0.0 0.0 1.0 1.0 0.0
8
0.826398 0.173602 0.791332 0.208668 0.60072 0.39928 0.650619 0.349381
8
0.0 1.0 1.0 0.0 0.0 1.0 1.0 0.0
8
1.0 0.0 0.0 1.0 0.0 1.0 0.0 1.0
8
0.0 1.0 0.0 1.0 1.0 0.0 1.0 0.0
8
1.0 0.0 1.0 0.0 0.0 1.0 1.0 0.0
8
1.0 0.0 0.0 1.0 0.0 1.0 0.0 1.0
8
1.0 0.0 0.0 1.0 0.0 1.0 1.0 0.0
8
1.0 0.0 1.0 0.0 0.0 1.0 1.0 0.0
8
0.660668 0.339332 0.215536 0.784464 0.0732859 0.926714 0.051558 0.948442
4
1.0 0.0 0.0 1.0
8
0.880046 0.119954 0.625489 0.374511 0.955161 0.0448395 0.410091 0.589909
8
0.0 1.0 1.0 0.0 1.0 0.0 1.0 0.0
8
1.0 0.0 0.0 1.0 1.0 0.0 0.0 1.0
8
1.0 0.0 1.0 0.0 0.0 1.0 0.0 1.0
8
0.621678 0.378322 0.083662 0.916338 0.690318 0.309682 0.620971 0.379029
8
1.0 0.0 1.0 0.0 1.0 0.0 0.0 1.0
8
0.0 1.0 1.0 0.0 1.0 0.0 1.0 0.0
8
1.0 0.0 0.0 1.0 0.0 1.0 1.0 0.0
8
1.0 0.0 1.0 0.0 0.0 1.0 0.0 1.0
8
0.0 1.0 1.0 0.0 1.0 0.0 0.0 1.0
8
1.0 0.0 1.0 0.0 0.0 1.0 1.0 0.0
4
1.0 0.0 0.0 1.0
8
1.0 0.0 0.0 1.0 1.0 0.0 0.0 1.0
8
0.0 1.0 1.0 0.0 0.0 1.0 1.0 0.0
8
0.0 1.0 1.0 0.0 0.0 1.0 1.0 0.0
8
1.0 0.0 0.0 1.0 1.0 0.0 1.0 0.0
8
0.0 1.0 0.0 1.0 1.0 0.0 1.0 0.0
8
1.0 0.0 1.0 0.0 1.0 0.0 0.0 1.0
8
0.616595 0.383405 0.508463 0.491537 0.322799 0.677201 0.638215 0.361785
8
0.0 1.0 1.0 0.0 0.0 1.0 1.0 0.0
8
0.0 1.0 1.0 0.0 0.0 1.0 1.0 0.0
8
1.0 0.0 0.0 1.0 1.0 0.0 1.0 0.0
8
1.0 0.0 1.0 0.0 0.0 1.0 0.0 1.0
4
1.0 0.0 0.0 1.0
8
0.0 1.0 0.0 1.0 1.0 0.0 0.0 1.0
8
0.0587034 0.941297 0.474681 0.525319 0.602547 0.397453 0.944612 0.0553883
8
0.0 1.0 0.0 1.0 1.0 0.0 0.0 1.0
8
0.0 1.0 1.0 0.0 1.0 0.0 0.0 1.0
8
0.0 1.0 1.0 0.0 1.0 0.0 1.0 0.0
8
1.0 0.0 0.0 1.0 0.0 1.0 1.0 0.0
8
0.0 1.0 1.0 0.0 0.0 1.0 0.0 1.0
8
0.735337 0.264663 0.21211 0.78789 0.573717 0.426283 0.679949 0.320051
8
0.0 1.0 0.0 1.0 0.0 1.0 1.0 0.0
8
0.0 1.0 0.0 1.0 1.0 0.0 0.0 1.0
8
1.0 0.0 1.0 0.0 0.0 1.0 0.0 1.0
4
1.0 0.0 0.0 1.0
8
1.0 0.0 1.0 0.0 1.0 0.0 0.0 1.0
8
0.0 1.0 0.0 1.0 1.0 0.0 0.0 1.0
8
0.0 1.0 1.0 0.0 1.0 0.0 1.0 0.0
8
0.0 1.0 1.0 0.0 0.0 1.0 0.0 1.0
8
0.0 1.0 0.0 1.0 1.0 0.0 1.0 0.0
8
0.0 1.0 1.0 0.0 1.0 0.0 1.0 0.0
8
1.0 0.0 0.0 1.0 1.0 0.0 0.0 1.0
8
0.0 1.0 1.0 0.0 1.0 0.0 1.0 0.0
8
0.0 1.0 1.0 0.0 0.0 1.0 1.0 0.0
8
0.0 1.0 1.0 0.0 0.0 1.0 0.0 1.0
8
0.0 1.0 1.0 0.0 0.0 1.0 1.0 0.0
4
0.548436 0.451564 0.195148 0.804852
8
0.0 1.0 1.0 0.0 1.0 0.0 0.0 1.0
8
0.0 1.0 0.0 1.0 0.0 1.0 1.0 0.0
8
1.0 0.0 1.0 0.0 1.0 0.0 0.0 1.0
8
1.0 0.0 1.0 0.0 1.0 0.0 0.0 1.0
8
0.0 1.0 0.0 1.0 0.0 1.0 1.0 0.0
8
0.791271 0.208729 0.840254 0.159746 0.497616 0.502384 0.98642 0.0135804
8
0.0 1.0 1.0 0.0 1.0 0.0 0.0 1.0
8
1.0 0.0 0.0 1.0 1.0 0.0 1.0 0.0
8
1.0 0.0 0.0 1.0 1.0 0.0 0.0 1.0
8
0.0 1.0 1.0 0.0 0.0 1.0 0.0 1.0
8
0.0 1.0 1.0 0.0 0.0 1.0 0.0 1.0
4
1.0 0.0 0.0 1.0
8
0.0 1.0 1.0 0.0 0.0 1.0 0.0 1.0
8
1.0 0.0 0.0 1.0 1.0 0.0 0.0 1.0
8
0.0 1.0 1.0 0.0 1.0 0.0 1.0 0.0
8
0.0 1.0 0.0 1.0 1.0 0.0 0.0 1.0
8
1.0 0.0 0.0 1.0 1.0 0.0 1.0 0.0
8
0.0 1.0 1.0 0.0 1.0 0.0 1.0 0.0
8
1.0 0.0 1.0 0.0 0.0 1.0 1.0 0.0
8
0.0 1.0 0.0 1.0 0.0 1.0 1.0 0.0
8
1.0 0.0 1.0 0.0 1.0 0.0 0.0 1.0
8
0.0 1.0 0.0 1.0 1.0 0.0 0.0 1.0
8
0.501538 0.498462 0.424851 0.575149 0.626059 0.373941 0.636073 0.363927
4
0.0 1.0 1.0 0.0
8
0.0 1.0 1.0 0.0 1.0 0.0 1.0 0.0
8
0.0 1.0 1.0 0.0 0.0 1.0 0.0 1.0
8
1.0 0.0 1.0 0.0 0.0 1.0 1.0 0.0
8
0.0 1.0 1.0 0.0 1.0 0.0 1.0 0.0
8
1.0 0.0 0.0 1.0 1.0 0.0 0.0 1.0
8
0.162375 0.837625 0.858871 0.141129 0.559472 0.440528 0.696277 0.303723
8
0.118972 0.881028 0.7069 0.2931 0.312821 0.687179 0.339972 0.660028
8
0.0 1.0 0.0 1.0 1.0 0.0 1.0 0.0
8
1.0 0.0 0.0 1.0 1.0 0.0 1.0 0.0
8
0.0 1.0 1.0 0.0 0.0 1.0 1.0 0.0
8
0.0 1.0 0.0 1.0 0.0 1.0 1.0 0.0
4
1.0 0.0 0.0 1.0
8
1.0 0.0 1.0 0.0 0.0 1.0 1.0 0.0
8
1.0 0.0 0.0 1.0 1.0 0.0 1.0 0.0
8
1.0 0.0 0.0 1.0 0.0 1.0 0.0 1.0
8
0.0 1.0 1.0 0.0 1.0 0.0 1.0 0.0
8
0.0 1.0 0.0 1.0 0.0 1.0 1.0 0.0
8
0.364283 0.635717 0.789163 0.210837 0.642606 0.357394 0.383163 0.616837
8
0.0 1.0 1.0 0.0 0.0 1.0 0.0 1.0
8
0.0 1.0 1.0 0.0 0.0 1.0 1.0 0.0
8
1.0 0.0 0.0 1.0 1.0 0.0 1.0 0.0
8
1.0 0.0 0.0 1.0 1.0 0.0 1.0 0.0
8
0.0 1.0 1.0 0.0 0.0 1.0 1.0 0.0
4
1.0 0.0 0.0 1.0
8
0.0 1.0 1.0 0.0 1.0 0.0 0.0 1.0
8
1.0 0.0 1.0 0.0 0.0 1.0 1.0 0.0
8
0.144924 0.855076 0.0945858 0.905414 0.949137 0.0508627 0.0639958 0.936004
8
0.0 1.0 0.0 1.0 0.0 1.0 1.0 0.0
8
0.927188 0.0728122 0.931563 0.0684374 0.162798 0.837202 0.989558 0.0104425
8
1.0 0.0 1.0 0.0 0.0 1.0 1.0 0.0
8
1.0 0.0 0.0 1.0 0.0 1.0 1.0 0.0
8
1.0 0.0 0.0 1.0 1.0 0.0 0.0 1.0
8
0.0 1.0 1.0 0.0 0.0 1.0 1.0 0.0
8
0.0 1.0 1.0 0.0 1.0 0.0 0.0 1.0
8
0.0 1.0 0.0 1.0 1.0 0.0 1.0 0.0
4
0.0 1.0 1.0 0.0
8
0.652712 0.347288 0.314115 0.685885 0.0303189 0.969681 0.132383 0.867617
8
0.0 1.0 1.0 0.0 1.0 0.0 1.0 0.0
8
0.0 1.0 0.0 1.0 1.0 0.0 1.0 0.0
8
0.0 1.0 1.0 0.0 0.0 1.0 1.0 0.0
8
1.0 0.0 0.0 1.0 1.0 0.0 1.0 0.0
8
0.0 1.0 0.0 1.0 1.0 0.0 0.0 1.0
8
1.0 0.0 0.0 1.0 0.0 1.0 1.0 0.0
8
0.0 1.0 1.0 0.0 0.0 1.0 1.0 0.0
8
1.0 0.0 1.0 0.0 0.0 1.0 1.0 0.0
8
0.0 1.0 1.0 0.0 1.0 0.0 1.0 0.0
8
1.0 0.0 0.0 1.0 0.0 1.0 0.0 1.0